32	0

0	3	2	3	4
3	3	5	6	11
5	2	9	14
4	4	7	8	9	14
10	3	12	13	20
1	4	7	8	9	14
8	4	10	12	13	20
8	4	10	12	13	20
6	4	10	12	13	20
6	5	15	16	18	19	23
10	3	12	13	20
3	6	15	16	17	18	19	23
7	3	16	19	23
10	6	15	16	17	18	19	23
6	4	21	22	24	26
8	3	24	25	28
10	4	21	24	25	28
7	5	21	24	25	26	28
4	4	21	22	24	26
8	5	21	22	23	24	26
5	1	27
5	3	25	27	28
8	3	25	27	28
3	1	27
9	1	29
7	1	27
6	1	29
10	1	30
7	1	30
4	1	31
7	1	32
0	0
